[VALIDATOR STDOUT]
Type-checking move
...action passes type checking.
Type-checking pick
...action passes type checking.
Type-checking drop
...action passes type checking.
Checking plan: /home/jfan5/Safety-gen/runs/benchmark/optic/grippers_20260205_142606/grippers/optic_results/grippers-n1-r5-o3-s3001.plan
Plan to validate:

Plan size: 9
1:
(move robot1 room5 room4)
 
2:
(pick robot1 ball1 room4 lgripper1)
 
3:
(move robot1 room4 room2)
 
4:
(move robot1 room2 room1)
 
5:
(pick robot1 ball3 room1 rgripper1)
 
6:
(move robot1 room1 room2)
 
7:
(drop robot1 ball3 room2 rgripper1)
 
8:
(move robot1 room2 room5)
 
9:
(drop robot1 ball1 room5 lgripper1)
 

Plan Validation details
-----------------------

Checking next happening (time 1)
Deleting (at-robby robot1 room5)
Adding (at-robby robot1 room4)

Checking next happening (time 2)
Deleting (at ball1 room4)
Deleting (free robot1 lgripper1)
Adding (carry robot1 ball1 lgripper1)

Checking next happening (time 3)
Deleting (at-robby robot1 room4)
Adding (at-robby robot1 room2)

Checking next happening (time 4)
Deleting (at-robby robot1 room2)
Adding (at-robby robot1 room1)

Checking next happening (time 5)
Deleting (at ball3 room1)
Deleting (free robot1 rgripper1)
Adding (carry robot1 ball3 rgripper1)

Checking next happening (time 6)
Deleting (at-robby robot1 room1)
Adding (at-robby robot1 room2)

Checking next happening (time 7)
Deleting (carry robot1 ball3 rgripper1)
Adding (at ball3 room2)
Adding (free robot1 rgripper1)

Checking next happening (time 8)
Deleting (at-robby robot1 room2)
Adding (at-robby robot1 room5)

Checking next happening (time 9)
Deleting (carry robot1 ball1 lgripper1)
Adding (at ball1 room5)
Adding (free robot1 lgripper1)
Plan executed successfully - checking goal
Plan valid
Final value: 9 

Successful plans:
Value: 9
 /home/jfan5/Safety-gen/runs/benchmark/optic/grippers_20260205_142606/grippers/optic_results/grippers-n1-r5-o3-s3001.plan 9
